122     4       
17      13      21      15      
0       0       0       0       0       3       2       3       4       
5       0       0       0       8       3       5       6       27      
6       0       0       0       6       1       16      
10      0       5       0       0       1       28      
5       0       0       7       0       3       7       8       10      
9       0       0       4       0       3       9       65      68      
9       0       7       0       0       3       11      12      35      
3       0       0       9       0       1       32      
10      0       5       0       0       2       19      46      
4       9       0       0       0       3       18      24      31      
10      0       0       8       0       3       19      33      38      
5       0       0       9       0       3       13      14      15      
4       6       0       0       0       3       36      39      51      
1       3       0       0       0       3       23      25      26      
7       0       5       0       0       3       34      50      92      
10      0       6       0       0       3       17      62      82      
6       0       0       3       0       3       20      83      91      
5       6       0       0       0       3       21      41      49      
8       0       0       0       1       2       71      119     
6       0       0       0       5       2       22      30      
9       3       0       0       0       3       29      42      66      
6       0       0       10      0       3       53      54      63      
5       4       0       0       0       2       33      73      
8       9       0       0       0       1       45      
9       0       0       0       5       2       44      60      
9       9       0       0       0       1       98      
3       0       0       7       0       1       67      
4       6       0       0       0       2       93      116     
1       0       0       1       0       2       47      97      
10      7       0       0       0       3       61      95      101     
3       5       0       0       0       3       65      89      92      
1       0       0       7       0       3       40      43      78      
1       0       8       0       0       2       87      102     
9       10      0       0       0       3       49      72      74      
9       0       0       5       0       2       57      87      
10      0       0       0       8       3       37      52      95      
7       0       0       0       5       2       66      105     
5       0       0       10      0       1       90      
9       0       0       10      0       3       68      86      90      
6       0       0       6       0       2       55      118     
9       0       0       4       0       1       63      
2       0       0       0       5       2       54      56      
10      0       0       7       0       1       108     
10      0       0       10      0       3       70      84      107     
1       0       9       0       0       1       106     
4       0       0       0       2       1       48      
2       2       0       0       0       3       63      88      110     
1       0       0       0       2       2       92      97      
1       1       0       0       0       2       79      80      
1       0       0       5       0       1       81      
7       0       4       0       0       2       72      115     
8       0       0       0       2       2       85      98      
4       0       3       0       0       1       58      
6       10      0       0       0       1       79      
10      0       0       0       2       2       64      100     
2       4       0       0       0       1       88      
1       0       0       0       7       3       61      78      83      
6       0       7       0       0       1       59      
7       0       0       0       9       2       66      121     
9       0       0       10      0       1       112     
9       1       0       0       0       1       77      
7       0       2       0       0       3       69      75      121     
5       0       0       4       0       3       76      95      121     
8       0       0       6       0       2       77      85      
8       0       0       0       2       3       72      94      109     
9       0       0       4       0       1       101     
2       0       0       4       0       1       90      
4       5       0       0       0       1       73      
7       0       4       0       0       3       78      89      91      
7       0       4       0       0       3       75      103     112     
3       0       7       0       0       1       111     
9       9       0       0       0       1       104     
4       0       0       2       0       3       76      79      82      
9       2       0       0       0       3       75      80      86      
3       0       0       5       0       2       91      104     
4       0       0       0       3       1       96      
8       0       6       0       0       1       81      
5       0       0       0       6       1       99      
4       0       0       0       2       1       97      
6       4       0       0       0       1       104     
3       0       0       7       0       1       84      
8       0       0       0       2       3       87      88      107     
5       0       0       3       0       2       84      102     
3       10      0       0       0       2       89      98      
2       4       0       0       0       1       114     
10      0       0       3       0       2       93      107     
6       0       7       0       0       2       93      108     
5       3       0       0       0       3       96      109     113     
5       0       0       4       0       1       111     
6       0       0       1       0       1       117     
9       0       0       0       7       1       110     
1       0       0       4       0       1       103     
7       0       0       0       5       3       100     101     112     
5       0       4       0       0       2       96      102     
6       0       0       0       7       1       100     
2       0       0       0       8       1       99      
1       0       5       0       0       1       119     
7       2       0       0       0       1       106     
9       3       0       0       0       2       103     105     
7       0       2       0       0       1       120     
4       0       0       10      0       1       110     
2       4       0       0       0       2       113     116     
3       9       0       0       0       1       108     
9       0       9       0       0       2       105     119     
2       0       0       5       0       1       106     
2       0       2       0       0       1       116     
4       8       0       0       0       2       109     111     
2       0       0       0       5       1       115     
10      6       0       0       0       1       118     
3       0       0       0       2       1       114     
9       0       9       0       0       1       114     
7       0       8       0       0       1       113     
4       0       1       0       0       1       115     
1       0       7       0       0       1       117     
9       0       0       8       0       1       118     
4       0       0       0       6       1       117     
3       0       0       0       5       1       120     
8       0       5       0       0       1       120     
9       5       0       0       0       1       122     
9       0       0       3       0       1       122     
10      7       0       0       0       1       122     
0       0       0       0       0       0       